1
1000
81
260 1
150 2
137 1
138 1
142 1
143 1
16 2
17 1
18 1
19 1
148 1
149 1
22 1
153 1
157 1
200 1
159 1
237 1
33 1
162 1
36 1
37 1
39 1
168 2
169 1
42 1
43 1
172 1
45 1
46 2
48 3
177 1
52 1
236 2
238 1
57 2
58 2
223 1
188 1
63 2
64 1
65 1
66 1
195 1
69 2
198 1
71 1
72 1
73 1
203 1
204 1
78 2
207 3
80 1
227 1
197 1
217 1
216 1
165 1
252 1
144 1
99 1
101 2
145 1
105 1
106 1
108 1
109 1
110 1
112 1
113 1
114 1
243 2
116 1
248 1
121 2
122 1
123 1
124 1
170 1
126 3
